432 433 434 435 436 437 438 439 454 455 456 457 458 459 460 461 462 463 466 467 465 464 496 497 498 519 518 520 517 503 502 501 500 499 452 453 440 441 450 449 442 443 444 445 446 448 447 381 380 379 378 377 376 375 374 315 314 316 313 312 451 311 310 309 504 505 308 307 303 304 306 305 318 317 319 320 321 297 298 299 300 301 302 508 507 506 516 515 514 513 509 510 511 512 527 522 521 523 526 525 524 493 492 491 490 528 529 530 531 489 488 534 533 532 231 230 229 228 227 186 182 188 187 178 177 176 540 538 539 537 536 535 487 486 485 484 483 482 481 480 479 478 477 476 475 567 568 569 570 474 473 472 494 495 471 470 469 468 571 572 573 0 1 2 3 4 5 6 7 8 9 10 11 17 18 19 20 16 15 14 13 12 23 22 21 24 25 26 27 28 29 31 30 32 33 34 35 36 37 38 40 41 39 42 43 49 48 47 44 45 46 555 91 92 93 94 97 554 553 552 556 557 558 559 550 560 561 562 563 565 566 564 549 548 551 101 102 100 99 98 96 95 118 119 120 121 122 123 71 72 73 74 77 88 89 90 87 86 85 84 51 50 52 54 53 55 56 83 82 57 58 59 81 80 79 61 60 63 62 78 64 76 75 65 66 67 68 70 69 124 125 126 127 128 129 130 132 133 134 135 136 137 138 139 140 141 151 150 149 152 148 147 142 143 144 146 145 158 157 153 155 156 159 160 154 165 164 166 167 163 168 162 161 113 131 112 111 110 114 115 116 117 106 105 104 103 547 546 545 544 543 541 542 107 109 108 173 174 175 172 170 171 169 180 179 181 183 185 184 194 195 196 197 198 199 200 201 202 204 203 208 207 206 205 209 210 211 212 213 214 215 216 217 223 222 221 220 218 219 193 192 191 190 189 226 225 224 232 233 234 235 236 237 240 239 238 246 247 245 244 243 242 241 248 249 250 251 252 254 253 255 256 257 260 261 259 258 262 263 264 265 266 267 268 269 271 272 273 274 275 292 270 296 295 294 293 291 290 289 288 276 277 278 279 282 281 280 287 286 285 284 283 334 335 336 337 338 339 333 332 331 330 340 341 343 344 345 346 364 363 362 347 348 349 350 351 352 357 358 359 361 360 401 402 403 404 405 409 408 407 406 400 399 397 398 370 369 368 365 342 366 367 327 328 329 326 325 324 323 322 373 372 371 396 395 394 393 391 392 390 389 388 387 385 386 431 382 383 384 410 418 419 417 411 412 356 355 354 353 413 414 415 416 420 421 422 423 424 425 426 427 428 429 430